;; sequence(s): A86829
;; terms: 1 3 45360 2615348736000 1938901255416373248000000 46499165848737652183499931018854400000000 76035233004283445109031520415161922110944103922401280000000000
;; small program: (loop(loop2(x * y, y - 2, x - 1, 1, 2 + (x + x)) div loop(x + x, x, 1), 1, (2 + x) * x) + 1) div 2
;; fast program: ((loop(((loop(x * y, x * x, 1) div loop(x * y, x, 1)) * loop(x * y, x, 1)) div 2, 1, 1 + x) div 2) + 1) div (if x <= 0 then 1 else 2)
(set-logic UFNIA)
(define-fun divf ((a Int) (b Int)) Int (ite (< 0 b) (div a b) (div (- a) (- b))))
(declare-fun f1 (Int Int) Int)
(declare-fun g1 (Int Int) Int)
(declare-fun h1 (Int) Int)
(declare-fun i1 () Int)
(declare-fun j1 (Int) Int)
(declare-fun u1 (Int Int Int) Int)
(declare-fun v1 (Int Int Int) Int)
(declare-fun w1 (Int) Int)
(declare-fun f2 (Int) Int)
(declare-fun g2 (Int) Int)
(declare-fun h2 () Int)
(declare-fun u2 (Int Int) Int)
(declare-fun v2 (Int) Int)
(declare-fun f0 (Int) Int)
(declare-fun g0 () Int)
(declare-fun h0 (Int) Int)
(declare-fun u0 (Int Int) Int)
(declare-fun v0 (Int) Int)
(declare-fun small (Int) Int)
(declare-fun f4 (Int Int) Int)
(declare-fun g4 (Int) Int)
(declare-fun h4 () Int)
(declare-fun u4 (Int Int) Int)
(declare-fun v4 (Int) Int)
(declare-fun f5 (Int Int) Int)
(declare-fun g5 (Int) Int)
(declare-fun h5 () Int)
(declare-fun u5 (Int Int) Int)
(declare-fun v5 (Int) Int)
(declare-fun f6 (Int Int) Int)
(declare-fun g6 (Int) Int)
(declare-fun h6 () Int)
(declare-fun u6 (Int Int) Int)
(declare-fun v6 (Int) Int)
(declare-fun f3 (Int) Int)
(declare-fun g3 () Int)
(declare-fun h3 (Int) Int)
(declare-fun u3 (Int Int) Int)
(declare-fun v3 (Int) Int)
(declare-fun fast (Int) Int)
(assert (forall ((x Int) (y Int)) (= (f1 x y) (* x y))))
(assert (forall ((x Int) (y Int)) (= (g1 x y) (- y 2))))
(assert (forall ((x Int)) (= (h1 x) (- x 1))))
(assert (= i1 1))
(assert (forall ((x Int)) (= (j1 x) (+ 2 (+ x x)))))
(assert (forall ((x Int) (y Int) (z Int)) (= (u1 x y z) (ite (<= x 0) y (f1 (u1 (- x 1) y z) (v1 (- x 1) y z))))))
(assert (forall ((x Int) (y Int) (z Int)) (= (v1 x y z) (ite (<= x 0) z (g1 (u1 (- x 1) y z) (v1 (- x 1) y z))))))
(assert (forall ((x Int)) (= (w1 x) (u1 (h1 x) i1 (j1 x)))))
(assert (forall ((x Int)) (= (f2 x) (+ x x))))
(assert (forall ((x Int)) (= (g2 x) x)))
(assert (= h2 1))
(assert (forall ((x Int) (y Int)) (= (u2 x y) (ite (<= x 0) y (f2 (u2 (- x 1) y))))))
(assert (forall ((x Int)) (= (v2 x) (u2 (g2 x) h2))))
(assert (forall ((x Int)) (= (f0 x) (divf (w1 x) (v2 x)))))
(assert (= g0 1))
(assert (forall ((x Int)) (= (h0 x) (* (+ 2 x) x))))
(assert (forall ((x Int) (y Int)) (= (u0 x y) (ite (<= x 0) y (f0 (u0 (- x 1) y))))))
(assert (forall ((x Int)) (= (v0 x) (u0 g0 (h0 x)))))
(assert (forall ((x Int)) (= (small x) (divf (+ (v0 x) 1) 2))))
(assert (forall ((x Int) (y Int)) (= (f4 x y) (* x y))))
(assert (forall ((x Int)) (= (g4 x) (* x x))))
(assert (= h4 1))
(assert (forall ((x Int) (y Int)) (= (u4 x y) (ite (<= x 0) y (f4 (u4 (- x 1) y) x)))))
(assert (forall ((x Int)) (= (v4 x) (u4 (g4 x) h4))))
(assert (forall ((x Int) (y Int)) (= (f5 x y) (* x y))))
(assert (forall ((x Int)) (= (g5 x) x)))
(assert (= h5 1))
(assert (forall ((x Int) (y Int)) (= (u5 x y) (ite (<= x 0) y (f5 (u5 (- x 1) y) x)))))
(assert (forall ((x Int)) (= (v5 x) (u5 (g5 x) h5))))
(assert (forall ((x Int) (y Int)) (= (f6 x y) (* x y))))
(assert (forall ((x Int)) (= (g6 x) x)))
(assert (= h6 1))
(assert (forall ((x Int) (y Int)) (= (u6 x y) (ite (<= x 0) y (f6 (u6 (- x 1) y) x)))))
(assert (forall ((x Int)) (= (v6 x) (u6 (g6 x) h6))))
(assert (forall ((x Int)) (= (f3 x) (divf (* (divf (v4 x) (v5 x)) (v6 x)) 2))))
(assert (= g3 1))
(assert (forall ((x Int)) (= (h3 x) (+ 1 x))))
(assert (forall ((x Int) (y Int)) (= (u3 x y) (ite (<= x 0) y (f3 (u3 (- x 1) y))))))
(assert (forall ((x Int)) (= (v3 x) (u3 g3 (h3 x)))))
(assert (forall ((x Int)) (= (fast x) (divf (+ (divf (v3 x) 2) 1) (ite (<= x 0) 1 2)))))
(assert (exists ((c Int)) (and (>= c 0) (not (= (small c) (fast c))))))
(check-sat)
